; Options: -in -smt2
(set-option :produce-unsat-assumptions true)

(declare-fun start!2595 () Bool)

(assert start!2595)

(declare-fun lt!7546 () (_ FloatingPoint 11 53))

(declare-datatypes ((Unit!1544 0))(
  ( (Unit!1545) )
))
(declare-datatypes ((array!1106 0))(
  ( (array!1107 (arr!489 (Array (_ BitVec 32) (_ BitVec 32))) (size!489 (_ BitVec 32))) )
))
(declare-datatypes ((tuple4!370 0))(
  ( (tuple4!371 (_1!379 Unit!1544) (_2!379 array!1106) (_3!316 (_ BitVec 32)) (_4!185 (_ FloatingPoint 11 53))) )
))
(declare-fun e!8040 () tuple4!370)

(declare-fun lt!7548 () array!1106)

(declare-fun b!14231 () Bool)

(declare-fun jz!20 () (_ BitVec 32))

(declare-fun Unit!1546 () Unit!1544)

(assert (=> b!14231 (= e!8040 (tuple4!371 Unit!1546 lt!7548 jz!20 lt!7546))))

(declare-fun i!142 () (_ BitVec 32))

(declare-fun carry!33 () (_ BitVec 32))

(declare-fun e!8039 () Bool)

(declare-fun b!14232 () Bool)

(declare-fun iq!76 () array!1106)

(assert (=> b!14232 (= e!8039 (and (bvsge (select (arr!489 iq!76) (bvsub jz!20 #b00000000000000000000000000000001)) #b00000000100000000000000000000000) (or (= carry!33 #b00000000000000000000000000000000) (= carry!33 #b00000000000000000000000000000001)) (bvslt i!142 (bvsub jz!20 #b00000000000000000000000000000001)) (or (bvslt i!142 #b00000000000000000000000000000000) (bvsge i!142 (size!489 iq!76)))))))

(declare-fun b!14233 () Bool)

(declare-fun res!11001 () Bool)

(declare-fun e!8042 () Bool)

(assert (=> b!14233 (=> (not res!11001) (not e!8042))))

(declare-datatypes ((array!1108 0))(
  ( (array!1109 (arr!490 (Array (_ BitVec 32) (_ FloatingPoint 11 53))) (size!490 (_ BitVec 32))) )
))
(declare-fun q!31 () array!1108)

(declare-fun qInv!0 (array!1108) Bool)

(assert (=> b!14233 (= res!11001 (qInv!0 q!31))))

(declare-fun b!14234 () Bool)

(declare-fun res!11002 () Bool)

(assert (=> b!14234 (=> (not res!11002) (not e!8039))))

(declare-fun iqInv!0 (array!1106) Bool)

(assert (=> b!14234 (= res!11002 (iqInv!0 iq!76))))

(declare-fun b!14235 () Bool)

(assert (=> b!14235 (= e!8042 e!8039)))

(declare-fun res!11003 () Bool)

(assert (=> b!14235 (=> (not res!11003) (not e!8039))))

(declare-fun lt!7547 () (_ FloatingPoint 11 53))

(declare-fun lt!7545 () tuple4!370)

(assert (=> b!14235 (= res!11003 (and (fp.leq (fp #b0 #b00000000000 #b0000000000000000000000000000000000000000000000000000) lt!7547) (fp.lt lt!7547 (fp #b0 #b10000000010 #b0000000000000000000000000000000000000000000000000000)) (bvsge (select (arr!489 (_2!379 lt!7545)) (bvsub jz!20 #b00000000000000000000000000000001)) #b00000000100000000000000000000000) (bvsle #b00000000000000000000000000000000 i!142) (bvsle i!142 (bvsub jz!20 #b00000000000000000000000000000001))))))

(assert (=> b!14235 (= lt!7547 (fp.sub roundNearestTiesToEven (_4!185 lt!7545) (fp.mul roundNearestTiesToEven (fp #b0 #b10000000010 #b0000000000000000000000000000000000000000000000000000) ((_ to_fp 11 53) roundNearestTiesToEven (ite (fp.isNaN (fp.mul roundNearestTiesToEven (_4!185 lt!7545) (fp #b0 #b01111111100 #b0000000000000000000000000000000000000000000000000000))) #b0000000000000000000000000000000000000000000000000000000000000000 (ite (fp.gt (fp.mul roundNearestTiesToEven (_4!185 lt!7545) (fp #b0 #b01111111100 #b0000000000000000000000000000000000000000000000000000)) ((_ to_fp 11 53) roundTowardZero #b0111111111111111111111111111111111111111111111111111111111111111)) #b0111111111111111111111111111111111111111111111111111111111111111 (ite (fp.lt (fp.mul roundNearestTiesToEven (_4!185 lt!7545) (fp #b0 #b01111111100 #b0000000000000000000000000000000000000000000000000000)) ((_ to_fp 11 53) roundTowardZero #b1000000000000000000000000000000000000000000000000000000000000000)) #b1000000000000000000000000000000000000000000000000000000000000000 ((_ fp.to_sbv 64) roundTowardZero (fp.mul roundNearestTiesToEven (_4!185 lt!7545) (fp #b0 #b01111111100 #b0000000000000000000000000000000000000000000000000000))))))))))))

(assert (=> b!14235 (= lt!7545 e!8040)))

(declare-fun c!1826 () Bool)

(assert (=> b!14235 (= c!1826 (bvsgt jz!20 #b00000000000000000000000000000000))))

(assert (=> b!14235 (= lt!7546 (select (arr!490 q!31) jz!20))))

(assert (=> b!14235 (= lt!7548 (array!1107 ((as const (Array (_ BitVec 32) (_ BitVec 32))) #b00000000000000000000000000000000) #b00000000000000000000000000010100))))

(declare-fun res!11004 () Bool)

(assert (=> start!2595 (=> (not res!11004) (not e!8042))))

(assert (=> start!2595 (= res!11004 (and (bvsle #b00000000000000000000000000000010 jz!20) (bvslt jz!20 #b00000000000000000000000000010011)))))

(assert (=> start!2595 e!8042))

(assert (=> start!2595 true))

(declare-fun array_inv!437 (array!1108) Bool)

(assert (=> start!2595 (array_inv!437 q!31)))

(declare-fun array_inv!438 (array!1106) Bool)

(assert (=> start!2595 (array_inv!438 iq!76)))

(declare-fun b!14236 () Bool)

(declare-fun computeModuloWhile!0 ((_ BitVec 32) array!1108 array!1106 (_ BitVec 32) (_ FloatingPoint 11 53)) tuple4!370)

(assert (=> b!14236 (= e!8040 (computeModuloWhile!0 jz!20 q!31 lt!7548 jz!20 lt!7546))))

(assert (= (and start!2595 res!11004) b!14233))

(assert (= (and b!14233 res!11001) b!14235))

(assert (= (and b!14235 c!1826) b!14236))

(assert (= (and b!14235 (not c!1826)) b!14231))

(assert (= (and b!14235 res!11003) b!14234))

(assert (= (and b!14234 res!11002) b!14232))

(declare-fun m!21821 () Bool)

(assert (=> start!2595 m!21821))

(declare-fun m!21823 () Bool)

(assert (=> start!2595 m!21823))

(declare-fun m!21825 () Bool)

(assert (=> b!14232 m!21825))

(declare-fun m!21827 () Bool)

(assert (=> b!14233 m!21827))

(declare-fun m!21829 () Bool)

(assert (=> b!14236 m!21829))

(declare-fun m!21831 () Bool)

(assert (=> b!14234 m!21831))

(declare-fun m!21833 () Bool)

(assert (=> b!14235 m!21833))

(declare-fun m!21835 () Bool)

(assert (=> b!14235 m!21835))

(check-sat (not b!14236) (not b!14233) (not b!14234) (not start!2595))
(check-sat)
(get-model)

(declare-fun d!5809 () Bool)

(declare-fun e!8051 () Bool)

(assert (=> d!5809 e!8051))

(declare-fun res!11016 () Bool)

(assert (=> d!5809 (=> (not res!11016) (not e!8051))))

(declare-fun lt!7560 () tuple4!370)

(assert (=> d!5809 (= res!11016 (and true true (bvsle #b00000000000000000000000000000000 (_3!316 lt!7560)) (bvsle (_3!316 lt!7560) jz!20) (fp.leq (fp #b0 #b00000000000 #b0000000000000000000000000000000000000000000000000000) (_4!185 lt!7560)) (fp.leq (_4!185 lt!7560) (fp #b0 #b10000110001 #b0100000000000000000000010011111111111111111111111100))))))

(declare-fun e!8049 () tuple4!370)

(assert (=> d!5809 (= lt!7560 e!8049)))

(declare-fun c!1829 () Bool)

(declare-fun lt!7563 () (_ BitVec 32))

(assert (=> d!5809 (= c!1829 (bvsgt lt!7563 #b00000000000000000000000000000000))))

(assert (=> d!5809 (= lt!7563 (bvsub jz!20 #b00000000000000000000000000000001))))

(declare-fun lt!7562 () (_ FloatingPoint 11 53))

(declare-fun lt!7559 () (_ FloatingPoint 11 53))

(assert (=> d!5809 (= lt!7562 (fp.add roundNearestTiesToEven (select (arr!490 q!31) (bvsub jz!20 #b00000000000000000000000000000001)) lt!7559))))

(declare-fun lt!7561 () array!1106)

(assert (=> d!5809 (= lt!7561 (array!1107 (store (arr!489 lt!7548) (bvsub jz!20 jz!20) (ite (fp.isNaN (fp.sub roundNearestTiesToEven lt!7546 (fp.mul roundNearestTiesToEven (fp #b0 #b10000010111 #b0000000000000000000000000000000000000000000000000000) lt!7559))) #b00000000000000000000000000000000 (ite (fp.gt (fp.sub roundNearestTiesToEven lt!7546 (fp.mul roundNearestTiesToEven (fp #b0 #b10000010111 #b0000000000000000000000000000000000000000000000000000) lt!7559)) ((_ to_fp 11 53) roundTowardZero #b01111111111111111111111111111111)) #b01111111111111111111111111111111 (ite (fp.lt (fp.sub roundNearestTiesToEven lt!7546 (fp.mul roundNearestTiesToEven (fp #b0 #b10000010111 #b0000000000000000000000000000000000000000000000000000) lt!7559)) ((_ to_fp 11 53) roundTowardZero #b10000000000000000000000000000000)) #b10000000000000000000000000000000 ((_ fp.to_sbv 32) roundTowardZero (fp.sub roundNearestTiesToEven lt!7546 (fp.mul roundNearestTiesToEven (fp #b0 #b10000010111 #b0000000000000000000000000000000000000000000000000000) lt!7559))))))) (size!489 lt!7548)))))

(assert (=> d!5809 (= lt!7559 ((_ to_fp 11 53) roundNearestTiesToEven (ite (fp.isNaN (fp.mul roundNearestTiesToEven (fp #b0 #b01111100111 #b0000000000000000000000000000000000000000000000000000) lt!7546)) #b00000000000000000000000000000000 (ite (fp.gt (fp.mul roundNearestTiesToEven (fp #b0 #b01111100111 #b0000000000000000000000000000000000000000000000000000) lt!7546) ((_ to_fp 11 53) roundTowardZero #b01111111111111111111111111111111)) #b01111111111111111111111111111111 (ite (fp.lt (fp.mul roundNearestTiesToEven (fp #b0 #b01111100111 #b0000000000000000000000000000000000000000000000000000) lt!7546) ((_ to_fp 11 53) roundTowardZero #b10000000000000000000000000000000)) #b10000000000000000000000000000000 ((_ fp.to_sbv 32) roundTowardZero (fp.mul roundNearestTiesToEven (fp #b0 #b01111100111 #b0000000000000000000000000000000000000000000000000000) lt!7546)))))))))

(declare-fun e!8050 () Bool)

(assert (=> d!5809 e!8050))

(declare-fun res!11015 () Bool)

(assert (=> d!5809 (=> (not res!11015) (not e!8050))))

(assert (=> d!5809 (= res!11015 (and (bvsle #b00000000000000000000000000000000 jz!20) (bvsle jz!20 jz!20) (fp.leq (fp #b0 #b00000000000 #b0000000000000000000000000000000000000000000000000000) lt!7546) (fp.leq lt!7546 (fp #b0 #b10000110001 #b0100000000000000000000010011111111111111111111111100))))))

(assert (=> d!5809 (= (computeModuloWhile!0 jz!20 q!31 lt!7548 jz!20 lt!7546) lt!7560)))

(declare-fun b!14249 () Bool)

(assert (=> b!14249 (= e!8051 (bvsle (_3!316 lt!7560) #b00000000000000000000000000000000))))

(declare-fun b!14250 () Bool)

(declare-fun res!11014 () Bool)

(assert (=> b!14250 (=> (not res!11014) (not e!8051))))

(assert (=> b!14250 (= res!11014 (iqInv!0 (_2!379 lt!7560)))))

(declare-fun b!14251 () Bool)

(assert (=> b!14251 (= e!8049 (computeModuloWhile!0 jz!20 q!31 lt!7561 lt!7563 lt!7562))))

(declare-fun b!14252 () Bool)

(declare-fun res!11013 () Bool)

(assert (=> b!14252 (=> (not res!11013) (not e!8050))))

(assert (=> b!14252 (= res!11013 (iqInv!0 lt!7548))))

(declare-fun b!14253 () Bool)

(assert (=> b!14253 (= e!8050 (bvsgt jz!20 #b00000000000000000000000000000000))))

(declare-fun b!14254 () Bool)

(declare-fun Unit!1547 () Unit!1544)

(assert (=> b!14254 (= e!8049 (tuple4!371 Unit!1547 lt!7561 lt!7563 lt!7562))))

(assert (= (and d!5809 res!11015) b!14252))

(assert (= (and b!14252 res!11013) b!14253))

(assert (= (and d!5809 c!1829) b!14251))

(assert (= (and d!5809 (not c!1829)) b!14254))

(assert (= (and d!5809 res!11016) b!14250))

(assert (= (and b!14250 res!11014) b!14249))

(declare-fun m!21837 () Bool)

(assert (=> d!5809 m!21837))

(declare-fun m!21839 () Bool)

(assert (=> d!5809 m!21839))

(declare-fun m!21841 () Bool)

(assert (=> b!14250 m!21841))

(declare-fun m!21843 () Bool)

(assert (=> b!14251 m!21843))

(declare-fun m!21845 () Bool)

(assert (=> b!14252 m!21845))

(assert (=> b!14236 d!5809))

(declare-fun d!5811 () Bool)

(declare-fun res!11019 () Bool)

(declare-fun e!8054 () Bool)

(assert (=> d!5811 (=> (not res!11019) (not e!8054))))

(assert (=> d!5811 (= res!11019 (= (size!490 q!31) #b00000000000000000000000000010100))))

(assert (=> d!5811 (= (qInv!0 q!31) e!8054)))

(declare-fun b!14257 () Bool)

(declare-fun lambda!602 () Int)

(declare-fun all20!0 (array!1108 Int) Bool)

(assert (=> b!14257 (= e!8054 (all20!0 q!31 lambda!602))))

(assert (= (and d!5811 res!11019) b!14257))

(declare-fun m!21847 () Bool)

(assert (=> b!14257 m!21847))

(assert (=> b!14233 d!5811))

(declare-fun d!5813 () Bool)

(declare-fun res!11022 () Bool)

(declare-fun e!8057 () Bool)

(assert (=> d!5813 (=> (not res!11022) (not e!8057))))

(assert (=> d!5813 (= res!11022 (= (size!489 iq!76) #b00000000000000000000000000010100))))

(assert (=> d!5813 (= (iqInv!0 iq!76) e!8057)))

(declare-fun b!14260 () Bool)

(declare-fun lambda!605 () Int)

(declare-fun all20Int!0 (array!1106 Int) Bool)

(assert (=> b!14260 (= e!8057 (all20Int!0 iq!76 lambda!605))))

(assert (= (and d!5813 res!11022) b!14260))

(declare-fun m!21849 () Bool)

(assert (=> b!14260 m!21849))

(assert (=> b!14234 d!5813))

(declare-fun d!5815 () Bool)

(assert (=> d!5815 (= (array_inv!437 q!31) (bvsge (size!490 q!31) #b00000000000000000000000000000000))))

(assert (=> start!2595 d!5815))

(declare-fun d!5817 () Bool)

(assert (=> d!5817 (= (array_inv!438 iq!76) (bvsge (size!489 iq!76) #b00000000000000000000000000000000))))

(assert (=> start!2595 d!5817))

(check-sat (not b!14252) (not b!14260) (not b!14251) (not b!14257) (not b!14250))
(check-sat)
